c FILE: i160-044

c SOURCE: From steinlib

c DESCRIPTION: Steinlib instance with 160 nodes and 2544 edges.

p edge 160 2544
e 1 3
e 1 7
e 1 9
e 1 13
e 1 18
e 1 21
e 1 26
e 1 33
e 1 35
e 1 40
e 1 44
e 1 47
e 1 49
e 1 50
e 1 54
e 1 60
e 1 63
e 1 71
e 1 77
e 1 79
e 1 80
e 1 82
e 1 86
e 1 91
e 1 92
e 1 93
e 1 100
e 1 103
e 1 104
e 1 120
e 1 124
e 1 130
e 1 132
e 1 134
e 1 136
e 1 138
e 1 152
e 1 153
e 1 159
e 2 6
e 2 11
e 2 16
e 2 34
e 2 44
e 2 49
e 2 50
e 2 54
e 2 65
e 2 67
e 2 71
e 2 82
e 2 83
e 2 85
e 2 112
e 2 114
e 2 123
e 2 125
e 2 127
e 2 132
e 2 140
e 2 143
e 2 144
e 2 145
e 2 150
e 2 156
e 3 12
e 3 28
e 3 30
e 3 33
e 3 47
e 3 50
e 3 56
e 3 61
e 3 62
e 3 67
e 3 73
e 3 83
e 3 88
e 3 89
e 3 107
e 3 112
e 3 120
e 3 121
e 3 123
e 3 127
e 3 133
e 3 139
e 3 153
e 3 158
e 4 8
e 4 9
e 4 13
e 4 15
e 4 21
e 4 23
e 4 38
e 4 40
e 4 44
e 4 46
e 4 49
e 4 61
e 4 64
e 4 77
e 4 78
e 4 84
e 4 86
e 4 107
e 4 120
e 4 122
e 4 127
e 4 133
e 4 137
e 4 142
e 4 146
e 4 151
e 4 158
e 4 160
e 5 6
e 5 9
e 5 16
e 5 21
e 5 33
e 5 40
e 5 47
e 5 50
e 5 52
e 5 53
e 5 55
e 5 59
e 5 67
e 5 70
e 5 76
e 5 82
e 5 85
e 5 92
e 5 94
e 5 96
e 5 97
e 5 105
e 5 108
e 5 111
e 5 114
e 5 129
e 5 139
e 5 152
e 6 11
e 6 15
e 6 18
e 6 24
e 6 27
e 6 34
e 6 40
e 6 43
e 6 44
e 6 47
e 6 49
e 6 56
e 6 57
e 6 62
e 6 65
e 6 73
e 6 74
e 6 77
e 6 83
e 6 84
e 6 86
e 6 87
e 6 93
e 6 94
e 6 95
e 6 96
e 6 98
e 6 99
e 6 100
e 6 104
e 6 108
e 6 110
e 6 115
e 6 117
e 6 122
e 6 125
e 6 130
e 6 131
e 6 132
e 6 137
e 6 140
e 6 143
e 6 147
e 6 151
e 6 159
e 7 21
e 7 29
e 7 32
e 7 35
e 7 36
e 7 37
e 7 39
e 7 42
e 7 53
e 7 63
e 7 66
e 7 69
e 7 70
e 7 72
e 7 77
e 7 78
e 7 89
e 7 90
e 7 94
e 7 96
e 7 97
e 7 102
e 7 106
e 7 110
e 7 112
e 7 124
e 7 143
e 7 149
e 8 9
e 8 10
e 8 15
e 8 16
e 8 21
e 8 23
e 8 32
e 8 41
e 8 45
e 8 53
e 8 54
e 8 57
e 8 61
e 8 68
e 8 73
e 8 74
e 8 85
e 8 87
e 8 88
e 8 90
e 8 98
e 8 101
e 8 103
e 8 106
e 8 111
e 8 114
e 8 115
e 8 117
e 8 130
e 8 131
e 8 132
e 8 133
e 8 136
e 8 146
e 8 159
e 8 160
e 9 18
e 9 20
e 9 28
e 9 39
e 9 51
e 9 55
e 9 57
e 9 64
e 9 71
e 9 78
e 9 87
e 9 92
e 9 98
e 9 103
e 9 108
e 9 132
e 9 158
e 9 160
e 10 11
e 10 12
e 10 14
e 10 17
e 10 29
e 10 31
e 10 32
e 10 37
e 10 38
e 10 44
e 10 55
e 10 57
e 10 59
e 10 62
e 10 64
e 10 70
e 10 74
e 10 79
e 10 82
e 10 83
e 10 84
e 10 86
e 10 87
e 10 88
e 10 89
e 10 92
e 10 98
e 10 109
e 10 110
e 10 112
e 10 117
e 10 121
e 10 127
e 10 128
e 10 131
e 10 140
e 10 143
e 10 153
e 10 155
e 10 159
e 11 16
e 11 26
e 11 32
e 11 51
e 11 62
e 11 68
e 11 70
e 11 79
e 11 92
e 11 104
e 11 108
e 11 120
e 11 122
e 11 124
e 11 125
e 11 131
e 11 134
e 11 140
e 11 152
e 11 154
e 11 158
e 12 15
e 12 22
e 12 32
e 12 38
e 12 39
e 12 48
e 12 65
e 12 66
e 12 68
e 12 72
e 12 73
e 12 77
e 12 79
e 12 81
e 12 84
e 12 86
e 12 87
e 12 93
e 12 97
e 12 109
e 12 110
e 12 117
e 12 129
e 12 131
e 12 134
e 12 146
e 12 154
e 12 155
e 13 14
e 13 17
e 13 18
e 13 20
e 13 28
e 13 29
e 13 38
e 13 42
e 13 48
e 13 55
e 13 78
e 13 84
e 13 90
e 13 92
e 13 93
e 13 94
e 13 97
e 13 111
e 13 117
e 13 126
e 13 132
e 13 134
e 13 139
e 13 150
e 13 154
e 14 15
e 14 16
e 14 17
e 14 18
e 14 24
e 14 26
e 14 28
e 14 33
e 14 39
e 14 43
e 14 55
e 14 59
e 14 60
e 14 64
e 14 69
e 14 76
e 14 80
e 14 81
e 14 110
e 14 115
e 14 122
e 14 126
e 14 127
e 14 128
e 14 130
e 14 133
e 14 137
e 14 149
e 14 151
e 14 156
e 15 16
e 15 21
e 15 28
e 15 31
e 15 33
e 15 35
e 15 38
e 15 46
e 15 52
e 15 57
e 15 60
e 15 61
e 15 71
e 15 76
e 15 85
e 15 101
e 15 111
e 15 121
e 15 125
e 15 130
e 15 132
e 15 136
e 15 147
e 15 150
e 15 154
e 15 155
e 16 17
e 16 18
e 16 19
e 16 37
e 16 49
e 16 59
e 16 61
e 16 69
e 16 72
e 16 85
e 16 92
e 16 96
e 16 98
e 16 106
e 16 111
e 16 114
e 16 116
e 16 122
e 16 127
e 16 129
e 16 130
e 16 137
e 16 138
e 16 139
e 16 140
e 16 144
e 16 147
e 16 152
e 16 156
e 16 157
e 16 160
e 17 26
e 17 28
e 17 32
e 17 33
e 17 35
e 17 38
e 17 44
e 17 45
e 17 49
e 17 51
e 17 52
e 17 60
e 17 67
e 17 74
e 17 77
e 17 90
e 17 95
e 17 100
e 17 102
e 17 107
e 17 108
e 17 110
e 17 116
e 17 119
e 17 122
e 17 131
e 17 134
e 17 148
e 17 150
e 17 153
e 17 154
e 17 157
e 17 158
e 18 20
e 18 26
e 18 29
e 18 34
e 18 37
e 18 40
e 18 44
e 18 48
e 18 56
e 18 57
e 18 60
e 18 64
e 18 68
e 18 82
e 18 85
e 18 87
e 18 91
e 18 92
e 18 93
e 18 95
e 18 100
e 18 107
e 18 113
e 18 119
e 18 120
e 18 122
e 18 123
e 18 129
e 18 135
e 18 136
e 18 140
e 18 141
e 18 147
e 18 148
e 18 155
e 18 156
e 18 157
e 18 158
e 18 160
e 19 25
e 19 33
e 19 40
e 19 42
e 19 56
e 19 57
e 19 58
e 19 63
e 19 66
e 19 74
e 19 76
e 19 86
e 19 94
e 19 96
e 19 99
e 19 100
e 19 103
e 19 105
e 19 106
e 19 110
e 19 111
e 19 115
e 19 117
e 19 122
e 19 124
e 19 126
e 19 127
e 19 135
e 19 145
e 19 146
e 19 152
e 19 153
e 19 158
e 19 159
e 19 160
e 20 35
e 20 51
e 20 52
e 20 61
e 20 63
e 20 64
e 20 65
e 20 73
e 20 80
e 20 96
e 20 108
e 20 110
e 20 111
e 20 112
e 20 115
e 20 117
e 20 119
e 20 136
e 20 139
e 20 147
e 20 157
e 20 158
e 21 22
e 21 30
e 21 39
e 21 42
e 21 43
e 21 49
e 21 50
e 21 54
e 21 56
e 21 57
e 21 62
e 21 65
e 21 67
e 21 76
e 21 82
e 21 90
e 21 91
e 21 92
e 21 94
e 21 95
e 21 103
e 21 118
e 21 122
e 21 123
e 21 126
e 21 129
e 21 132
e 21 135
e 21 141
e 21 157
e 21 159
e 22 39
e 22 40
e 22 44
e 22 46
e 22 48
e 22 49
e 22 52
e 22 53
e 22 54
e 22 55
e 22 76
e 22 77
e 22 78
e 22 83
e 22 88
e 22 89
e 22 91
e 22 92
e 22 105
e 22 108
e 22 109
e 22 119
e 22 129
e 22 134
e 22 136
e 22 142
e 22 155
e 22 156
e 23 24
e 23 27
e 23 31
e 23 32
e 23 34
e 23 36
e 23 38
e 23 39
e 23 46
e 23 49
e 23 50
e 23 57
e 23 61
e 23 73
e 23 76
e 23 78
e 23 79
e 23 84
e 23 100
e 23 114
e 23 116
e 23 121
e 23 128
e 23 129
e 23 142
e 23 144
e 23 145
e 23 147
e 23 148
e 24 26
e 24 29
e 24 33
e 24 40
e 24 43
e 24 44
e 24 45
e 24 52
e 24 55
e 24 56
e 24 59
e 24 62
e 24 63
e 24 66
e 24 85
e 24 88
e 24 92
e 24 94
e 24 97
e 24 101
e 24 102
e 24 109
e 24 112
e 24 115
e 24 116
e 24 120
e 24 123
e 24 129
e 24 135
e 24 141
e 24 143
e 24 147
e 24 155
e 25 27
e 25 28
e 25 36
e 25 40
e 25 43
e 25 45
e 25 46
e 25 47
e 25 51
e 25 53
e 25 56
e 25 58
e 25 59
e 25 60
e 25 68
e 25 73
e 25 75
e 25 83
e 25 85
e 25 93
e 25 95
e 25 102
e 25 105
e 25 107
e 25 108
e 25 111
e 25 115
e 25 119
e 25 120
e 25 122
e 25 124
e 25 127
e 25 129
e 25 132
e 25 134
e 25 135
e 25 141
e 25 149
e 25 154
e 25 156
e 26 30
e 26 32
e 26 34
e 26 35
e 26 39
e 26 40
e 26 42
e 26 47
e 26 49
e 26 57
e 26 63
e 26 64
e 26 72
e 26 75
e 26 77
e 26 78
e 26 81
e 26 82
e 26 106
e 26 107
e 26 114
e 26 124
e 26 125
e 26 127
e 26 137
e 26 138
e 26 139
e 26 141
e 26 144
e 26 150
e 26 151
e 26 154
e 26 158
e 27 31
e 27 34
e 27 37
e 27 38
e 27 52
e 27 69
e 27 81
e 27 83
e 27 84
e 27 86
e 27 90
e 27 92
e 27 94
e 27 96
e 27 97
e 27 107
e 27 114
e 27 115
e 27 120
e 27 122
e 27 133
e 27 134
e 27 135
e 27 139
e 27 144
e 27 151
e 27 156
e 27 158
e 27 159
e 28 30
e 28 53
e 28 63
e 28 66
e 28 78
e 28 82
e 28 85
e 28 88
e 28 89
e 28 94
e 28 101
e 28 104
e 28 105
e 28 108
e 28 110
e 28 115
e 28 121
e 28 123
e 28 125
e 28 130
e 28 132
e 28 136
e 28 143
e 28 144
e 28 146
e 28 152
e 28 156
e 28 158
e 28 159
e 29 33
e 29 50
e 29 52
e 29 66
e 29 68
e 29 77
e 29 80
e 29 82
e 29 83
e 29 85
e 29 91
e 29 103
e 29 106
e 29 107
e 29 116
e 29 118
e 29 119
e 29 125
e 29 130
e 29 132
e 29 136
e 29 137
e 29 138
e 29 143
e 29 153
e 29 155
e 30 33
e 30 52
e 30 56
e 30 64
e 30 67
e 30 72
e 30 85
e 30 89
e 30 103
e 30 111
e 30 114
e 30 117
e 30 125
e 30 130
e 30 131
e 30 141
e 30 150
e 30 152
e 30 158
e 31 39
e 31 48
e 31 59
e 31 64
e 31 75
e 31 82
e 31 83
e 31 96
e 31 99
e 31 103
e 31 105
e 31 108
e 31 110
e 31 113
e 31 115
e 31 119
e 31 120
e 31 126
e 31 129
e 31 130
e 31 133
e 31 136
e 31 140
e 31 142
e 31 145
e 31 156
e 32 40
e 32 41
e 32 44
e 32 51
e 32 53
e 32 54
e 32 55
e 32 64
e 32 81
e 32 86
e 32 91
e 32 93
e 32 103
e 32 115
e 32 116
e 32 123
e 32 128
e 32 130
e 32 135
e 32 136
e 32 138
e 32 143
e 32 150
e 32 152
e 32 154
e 32 157
e 32 160
e 33 35
e 33 38
e 33 47
e 33 63
e 33 70
e 33 72
e 33 76
e 33 82
e 33 84
e 33 85
e 33 90
e 33 97
e 33 99
e 33 104
e 33 107
e 33 108
e 33 115
e 33 126
e 33 128
e 33 131
e 33 135
e 33 140
e 33 145
e 33 148
e 33 149
e 33 151
e 33 154
e 33 155
e 33 156
e 34 35
e 34 46
e 34 51
e 34 56
e 34 57
e 34 59
e 34 67
e 34 72
e 34 85
e 34 88
e 34 99
e 34 102
e 34 107
e 34 115
e 34 127
e 34 130
e 34 132
e 34 135
e 34 141
e 34 143
e 34 147
e 34 152
e 34 153
e 34 158
e 35 43
e 35 52
e 35 61
e 35 62
e 35 64
e 35 65
e 35 76
e 35 77
e 35 84
e 35 90
e 35 91
e 35 95
e 35 107
e 35 109
e 35 110
e 35 111
e 35 112
e 35 115
e 35 122
e 35 125
e 35 127
e 35 129
e 35 134
e 35 141
e 35 149
e 35 158
e 35 159
e 35 160
e 36 38
e 36 39
e 36 48
e 36 50
e 36 56
e 36 58
e 36 64
e 36 65
e 36 66
e 36 69
e 36 73
e 36 84
e 36 85
e 36 86
e 36 91
e 36 96
e 36 105
e 36 109
e 36 116
e 36 128
e 36 135
e 36 139
e 36 140
e 36 143
e 36 156
e 37 40
e 37 48
e 37 49
e 37 59
e 37 62
e 37 68
e 37 88
e 37 90
e 37 103
e 37 108
e 37 112
e 37 125
e 37 128
e 37 130
e 37 132
e 37 133
e 37 143
e 37 147
e 37 149
e 37 153
e 37 154
e 37 159
e 38 45
e 38 53
e 38 57
e 38 65
e 38 66
e 38 67
e 38 70
e 38 71
e 38 74
e 38 80
e 38 82
e 38 83
e 38 98
e 38 106
e 38 108
e 38 115
e 38 118
e 38 119
e 38 121
e 38 124
e 38 127
e 38 128
e 38 130
e 38 132
e 38 139
e 38 143
e 38 144
e 38 146
e 38 149
e 38 150
e 38 151
e 38 152
e 39 43
e 39 47
e 39 48
e 39 64
e 39 65
e 39 68
e 39 75
e 39 80
e 39 90
e 39 91
e 39 93
e 39 98
e 39 101
e 39 102
e 39 121
e 39 124
e 39 125
e 39 128
e 39 131
e 39 136
e 39 139
e 39 141
e 39 142
e 39 144
e 40 48
e 40 54
e 40 55
e 40 56
e 40 65
e 40 68
e 40 75
e 40 76
e 40 84
e 40 87
e 40 92
e 40 96
e 40 97
e 40 98
e 40 112
e 40 116
e 40 117
e 40 118
e 40 121
e 40 131
e 40 137
e 40 138
e 40 144
e 40 151
e 40 154
e 40 156
e 41 45
e 41 48
e 41 63
e 41 65
e 41 66
e 41 95
e 41 100
e 41 108
e 41 114
e 41 121
e 41 125
e 41 126
e 41 128
e 41 130
e 41 133
e 41 135
e 41 141
e 41 145
e 41 150
e 41 151
e 42 46
e 42 48
e 42 67
e 42 77
e 42 79
e 42 87
e 42 96
e 42 104
e 42 111
e 42 116
e 42 117
e 42 121
e 42 128
e 42 129
e 42 132
e 42 138
e 42 139
e 42 140
e 42 145
e 42 149
e 42 151
e 42 160
e 43 45
e 43 48
e 43 58
e 43 61
e 43 65
e 43 69
e 43 73
e 43 76
e 43 80
e 43 83
e 43 85
e 43 91
e 43 93
e 43 102
e 43 105
e 43 113
e 43 116
e 43 118
e 43 127
e 43 133
e 43 135
e 43 140
e 43 146
e 43 153
e 43 154
e 43 155
e 43 157
e 44 50
e 44 61
e 44 62
e 44 66
e 44 69
e 44 70
e 44 74
e 44 76
e 44 81
e 44 85
e 44 92
e 44 96
e 44 101
e 44 102
e 44 116
e 44 125
e 44 135
e 44 138
e 44 142
e 44 150
e 44 157
e 45 59
e 45 63
e 45 90
e 45 98
e 45 106
e 45 109
e 45 112
e 45 114
e 45 115
e 45 116
e 45 134
e 45 154
e 46 50
e 46 52
e 46 63
e 46 66
e 46 78
e 46 79
e 46 83
e 46 84
e 46 86
e 46 87
e 46 98
e 46 104
e 46 108
e 46 110
e 46 116
e 46 120
e 46 122
e 46 124
e 46 132
e 46 137
e 46 139
e 46 147
e 46 158
e 46 160
e 47 51
e 47 66
e 47 67
e 47 71
e 47 72
e 47 73
e 47 80
e 47 84
e 47 95
e 47 106
e 47 112
e 47 116
e 47 117
e 47 126
e 47 130
e 47 131
e 47 133
e 47 135
e 47 141
e 47 148
e 47 159
e 48 55
e 48 61
e 48 62
e 48 76
e 48 78
e 48 82
e 48 83
e 48 84
e 48 90
e 48 94
e 48 98
e 48 101
e 48 115
e 48 120
e 48 153
e 48 158
e 48 160
e 49 51
e 49 59
e 49 65
e 49 66
e 49 67
e 49 73
e 49 77
e 49 78
e 49 81
e 49 84
e 49 87
e 49 97
e 49 98
e 49 99
e 49 103
e 49 107
e 49 111
e 49 115
e 49 132
e 49 141
e 49 146
e 49 148
e 49 150
e 50 51
e 50 55
e 50 62
e 50 63
e 50 69
e 50 77
e 50 78
e 50 79
e 50 81
e 50 83
e 50 84
e 50 87
e 50 92
e 50 103
e 50 105
e 50 109
e 50 114
e 50 117
e 50 118
e 50 127
e 50 128
e 50 130
e 50 139
e 50 151
e 50 157
e 50 158
e 50 159
e 51 58
e 51 60
e 51 68
e 51 74
e 51 82
e 51 89
e 51 90
e 51 94
e 51 97
e 51 107
e 51 117
e 51 122
e 51 125
e 51 127
e 51 128
e 51 140
e 51 154
e 51 159
e 52 54
e 52 57
e 52 58
e 52 67
e 52 72
e 52 82
e 52 83
e 52 87
e 52 103
e 52 108
e 52 109
e 52 116
e 52 119
e 52 120
e 52 127
e 52 133
e 52 135
e 52 143
e 52 153
e 52 156
e 52 158
e 52 159
e 53 54
e 53 56
e 53 59
e 53 65
e 53 74
e 53 78
e 53 81
e 53 84
e 53 87
e 53 90
e 53 93
e 53 98
e 53 102
e 53 104
e 53 105
e 53 109
e 53 117
e 53 129
e 53 135
e 53 136
e 53 142
e 53 150
e 53 156
e 53 157
e 54 55
e 54 58
e 54 59
e 54 61
e 54 62
e 54 66
e 54 67
e 54 68
e 54 78
e 54 83
e 54 88
e 54 91
e 54 94
e 54 98
e 54 103
e 54 105
e 54 119
e 54 120
e 54 132
e 54 139
e 54 140
e 54 144
e 54 145
e 54 149
e 54 152
e 54 153
e 54 157
e 55 60
e 55 61
e 55 68
e 55 73
e 55 78
e 55 80
e 55 81
e 55 86
e 55 89
e 55 94
e 55 95
e 55 106
e 55 116
e 55 122
e 55 123
e 55 130
e 55 134
e 55 136
e 55 145
e 55 149
e 55 158
e 55 160
e 56 60
e 56 67
e 56 70
e 56 75
e 56 80
e 56 82
e 56 85
e 56 86
e 56 87
e 56 94
e 56 101
e 56 102
e 56 103
e 56 110
e 56 111
e 56 120
e 56 121
e 56 124
e 56 126
e 56 127
e 56 131
e 56 150
e 56 157
e 56 160
e 57 64
e 57 65
e 57 74
e 57 76
e 57 83
e 57 88
e 57 97
e 57 99
e 57 100
e 57 106
e 57 110
e 57 111
e 57 120
e 57 126
e 57 128
e 57 130
e 57 132
e 57 134
e 57 142
e 57 144
e 58 61
e 58 65
e 58 70
e 58 78
e 58 81
e 58 90
e 58 92
e 58 95
e 58 96
e 58 97
e 58 99
e 58 100
e 58 103
e 58 105
e 58 106
e 58 110
e 58 114
e 58 123
e 58 135
e 58 149
e 58 150
e 58 153
e 58 160
e 59 60
e 59 61
e 59 64
e 59 89
e 59 90
e 59 92
e 59 93
e 59 101
e 59 102
e 59 110
e 59 111
e 59 118
e 59 132
e 59 133
e 59 137
e 59 138
e 59 152
e 60 63
e 60 65
e 60 66
e 60 70
e 60 73
e 60 78
e 60 88
e 60 90
e 60 95
e 60 97
e 60 104
e 60 123
e 60 138
e 60 140
e 60 142
e 60 145
e 60 150
e 60 156
e 60 158
e 60 160
e 61 62
e 61 69
e 61 70
e 61 71
e 61 73
e 61 76
e 61 83
e 61 85
e 61 95
e 61 97
e 61 108
e 61 109
e 61 110
e 61 111
e 61 114
e 61 120
e 61 125
e 61 132
e 61 135
e 61 136
e 61 137
e 61 139
e 61 141
e 61 142
e 61 145
e 61 148
e 61 155
e 61 159
e 62 71
e 62 74
e 62 87
e 62 91
e 62 95
e 62 98
e 62 100
e 62 103
e 62 111
e 62 115
e 62 126
e 62 130
e 62 137
e 62 138
e 62 142
e 62 146
e 62 151
e 62 153
e 62 155
e 62 156
e 62 157
e 63 69
e 63 73
e 63 80
e 63 83
e 63 90
e 63 93
e 63 101
e 63 105
e 63 108
e 63 110
e 63 112
e 63 114
e 63 118
e 63 127
e 63 138
e 63 143
e 63 147
e 63 155
e 63 160
e 64 70
e 64 77
e 64 78
e 64 84
e 64 85
e 64 90
e 64 94
e 64 99
e 64 110
e 64 116
e 64 121
e 64 124
e 64 127
e 64 129
e 64 136
e 64 137
e 64 151
e 65 76
e 65 88
e 65 90
e 65 99
e 65 100
e 65 103
e 65 106
e 65 111
e 65 115
e 65 129
e 65 130
e 65 133
e 65 142
e 65 143
e 65 145
e 65 153
e 65 158
e 66 68
e 66 72
e 66 74
e 66 79
e 66 80
e 66 82
e 66 85
e 66 94
e 66 95
e 66 98
e 66 107
e 66 113
e 66 117
e 66 118
e 66 129
e 66 138
e 66 139
e 66 141
e 66 145
e 66 146
e 66 154
e 67 68
e 67 71
e 67 79
e 67 84
e 67 90
e 67 94
e 67 97
e 67 100
e 67 102
e 67 103
e 67 110
e 67 112
e 67 119
e 67 125
e 67 132
e 67 145
e 67 148
e 67 153
e 68 69
e 68 79
e 68 86
e 68 92
e 68 101
e 68 107
e 68 122
e 68 125
e 68 126
e 68 129
e 68 143
e 68 150
e 68 154
e 69 70
e 69 84
e 69 89
e 69 91
e 69 92
e 69 95
e 69 99
e 69 101
e 69 108
e 69 114
e 69 115
e 69 121
e 69 122
e 69 131
e 69 135
e 69 145
e 69 152
e 69 154
e 69 155
e 69 158
e 70 77
e 70 79
e 70 80
e 70 81
e 70 85
e 70 87
e 70 91
e 70 93
e 70 96
e 70 107
e 70 109
e 70 118
e 70 132
e 70 133
e 70 148
e 70 153
e 70 154
e 70 158
e 71 74
e 71 75
e 71 80
e 71 86
e 71 88
e 71 90
e 71 100
e 71 110
e 71 114
e 71 120
e 71 128
e 71 136
e 71 137
e 71 138
e 71 152
e 71 157
e 72 82
e 72 85
e 72 87
e 72 97
e 72 101
e 72 104
e 72 105
e 72 122
e 72 126
e 72 134
e 72 135
e 72 143
e 72 149
e 72 152
e 72 160
e 73 78
e 73 79
e 73 83
e 73 91
e 73 95
e 73 96
e 73 101
e 73 103
e 73 108
e 73 132
e 73 139
e 73 143
e 73 145
e 73 147
e 73 157
e 73 160
e 74 76
e 74 79
e 74 81
e 74 87
e 74 91
e 74 95
e 74 97
e 74 100
e 74 108
e 74 109
e 74 112
e 74 116
e 74 118
e 74 119
e 74 123
e 74 127
e 74 128
e 74 130
e 74 136
e 74 149
e 74 152
e 74 157
e 75 79
e 75 95
e 75 103
e 75 114
e 75 118
e 75 123
e 75 129
e 75 132
e 75 149
e 75 152
e 75 156
e 75 159
e 76 86
e 76 89
e 76 90
e 76 91
e 76 92
e 76 96
e 76 101
e 76 123
e 76 125
e 76 129
e 76 131
e 76 132
e 76 142
e 76 143
e 76 147
e 76 155
e 77 79
e 77 81
e 77 82
e 77 91
e 77 97
e 77 102
e 77 109
e 77 112
e 77 116
e 77 118
e 77 121
e 77 128
e 77 130
e 77 135
e 77 148
e 78 79
e 78 81
e 78 83
e 78 84
e 78 97
e 78 100
e 78 108
e 78 109
e 78 113
e 78 137
e 78 139
e 78 140
e 78 155
e 78 159
e 78 160
e 79 90
e 79 96
e 79 98
e 79 99
e 79 117
e 79 127
e 79 134
e 79 141
e 79 152
e 79 154
e 79 160
e 80 99
e 80 133
e 80 138
e 80 139
e 80 143
e 80 144
e 80 145
e 80 160
e 81 84
e 81 92
e 81 105
e 81 110
e 81 116
e 81 132
e 81 136
e 81 137
e 81 140
e 81 141
e 81 142
e 81 159
e 81 160
e 82 92
e 82 93
e 82 105
e 82 114
e 82 117
e 82 120
e 82 122
e 82 127
e 82 131
e 82 138
e 82 140
e 82 142
e 82 151
e 82 154
e 82 158
e 82 160
e 83 85
e 83 90
e 83 100
e 83 102
e 83 106
e 83 107
e 83 108
e 83 112
e 83 113
e 83 117
e 83 119
e 83 122
e 83 125
e 83 128
e 83 133
e 83 136
e 83 139
e 83 140
e 83 145
e 83 146
e 83 147
e 83 151
e 83 153
e 83 158
e 83 159
e 84 85
e 84 96
e 84 105
e 84 110
e 84 111
e 84 115
e 84 124
e 84 125
e 84 128
e 84 132
e 84 142
e 84 147
e 84 154
e 84 157
e 85 89
e 85 91
e 85 92
e 85 93
e 85 100
e 85 107
e 85 128
e 85 130
e 85 136
e 85 139
e 85 141
e 85 156
e 86 88
e 86 89
e 86 93
e 86 96
e 86 97
e 86 98
e 86 107
e 86 109
e 86 111
e 86 115
e 86 117
e 86 122
e 86 123
e 86 126
e 86 131
e 86 133
e 86 141
e 86 142
e 86 145
e 86 153
e 86 156
e 87 89
e 87 90
e 87 92
e 87 93
e 87 105
e 87 108
e 87 111
e 87 122
e 87 127
e 87 128
e 87 133
e 87 137
e 87 139
e 87 140
e 87 157
e 88 89
e 88 91
e 88 93
e 88 100
e 88 113
e 88 116
e 88 124
e 88 125
e 88 126
e 88 129
e 88 130
e 88 144
e 88 146
e 88 152
e 88 158
e 89 92
e 89 94
e 89 103
e 89 119
e 89 121
e 89 122
e 89 124
e 89 127
e 89 134
e 89 136
e 89 154
e 89 158
e 90 91
e 90 99
e 90 103
e 90 106
e 90 124
e 90 127
e 90 129
e 90 131
e 90 133
e 90 139
e 90 144
e 90 150
e 90 152
e 91 96
e 91 98
e 91 110
e 91 111
e 91 116
e 91 117
e 91 125
e 91 127
e 91 129
e 91 145
e 91 149
e 92 95
e 92 101
e 92 109
e 92 111
e 92 112
e 92 121
e 92 124
e 92 125
e 92 128
e 92 136
e 92 139
e 92 145
e 92 150
e 92 153
e 92 157
e 92 158
e 93 94
e 93 97
e 93 99
e 93 105
e 93 106
e 93 120
e 93 121
e 93 122
e 93 128
e 93 130
e 93 135
e 93 143
e 93 146
e 93 152
e 93 153
e 93 155
e 93 158
e 94 100
e 94 122
e 94 126
e 94 134
e 94 135
e 94 138
e 94 140
e 94 141
e 94 144
e 94 148
e 94 154
e 94 160
e 95 98
e 95 100
e 95 106
e 95 110
e 95 113
e 95 116
e 95 119
e 95 130
e 95 131
e 95 132
e 95 150
e 95 151
e 95 153
e 95 155
e 96 100
e 96 113
e 96 119
e 96 125
e 96 133
e 96 140
e 96 144
e 96 153
e 96 155
e 96 157
e 96 158
e 96 159
e 97 98
e 97 119
e 97 123
e 97 130
e 97 131
e 97 138
e 97 152
e 98 100
e 98 101
e 98 117
e 98 120
e 98 125
e 98 134
e 98 137
e 98 144
e 98 147
e 98 150
e 99 110
e 99 144
e 99 146
e 99 150
e 100 101
e 100 108
e 100 109
e 100 110
e 100 111
e 100 131
e 100 137
e 100 148
e 100 156
e 101 105
e 101 111
e 101 112
e 101 113
e 101 114
e 101 118
e 101 125
e 101 129
e 101 136
e 101 143
e 101 145
e 101 146
e 101 147
e 101 150
e 101 151
e 102 105
e 102 107
e 102 115
e 102 121
e 102 122
e 102 136
e 102 139
e 102 148
e 103 105
e 103 106
e 103 131
e 103 138
e 103 142
e 103 148
e 103 150
e 103 158
e 103 159
e 104 108
e 104 119
e 104 122
e 104 132
e 104 134
e 104 144
e 104 148
e 104 155
e 104 159
e 105 108
e 105 119
e 105 120
e 105 129
e 105 130
e 105 143
e 106 107
e 106 116
e 106 117
e 106 124
e 106 133
e 106 136
e 106 141
e 106 146
e 106 147
e 106 151
e 106 160
e 107 118
e 107 119
e 107 123
e 107 125
e 107 132
e 107 136
e 107 154
e 107 160
e 108 116
e 108 127
e 108 131
e 108 135
e 108 141
e 108 143
e 108 150
e 108 151
e 108 153
e 108 154
e 109 111
e 109 114
e 109 116
e 109 124
e 109 125
e 109 134
e 109 144
e 109 149
e 109 155
e 109 159
e 110 117
e 110 127
e 110 133
e 110 148
e 110 149
e 110 151
e 110 158
e 111 112
e 111 120
e 111 124
e 111 126
e 111 130
e 111 143
e 111 146
e 111 150
e 112 115
e 112 116
e 112 119
e 112 123
e 112 130
e 112 132
e 112 134
e 112 138
e 112 142
e 112 149
e 112 151
e 112 153
e 112 156
e 112 158
e 112 160
e 113 115
e 113 116
e 113 118
e 113 128
e 113 131
e 113 134
e 113 135
e 113 154
e 113 155
e 113 157
e 113 160
e 114 116
e 114 119
e 114 120
e 114 130
e 114 151
e 114 156
e 114 160
e 115 116
e 115 128
e 115 133
e 115 145
e 115 148
e 116 119
e 116 123
e 116 124
e 116 125
e 116 128
e 116 137
e 116 140
e 116 141
e 116 148
e 116 154
e 116 160
e 117 125
e 117 129
e 117 132
e 117 138
e 117 139
e 117 141
e 117 143
e 117 144
e 117 147
e 117 149
e 117 154
e 117 159
e 118 121
e 118 125
e 118 131
e 118 138
e 118 140
e 118 143
e 118 147
e 118 151
e 118 152
e 118 155
e 118 157
e 118 159
e 118 160
e 119 123
e 119 124
e 119 131
e 119 137
e 119 140
e 119 153
e 120 123
e 120 124
e 120 126
e 120 140
e 120 142
e 121 126
e 121 128
e 121 130
e 121 131
e 121 134
e 121 137
e 121 143
e 121 150
e 121 152
e 121 155
e 121 160
e 122 125
e 122 126
e 122 133
e 122 148
e 122 150
e 122 152
e 122 158
e 122 159
e 122 160
e 123 131
e 123 132
e 123 135
e 123 136
e 123 137
e 123 138
e 123 139
e 123 143
e 123 145
e 123 148
e 123 160
e 124 133
e 124 135
e 124 138
e 124 149
e 124 150
e 124 156
e 124 157
e 124 158
e 125 126
e 125 127
e 125 133
e 125 135
e 125 136
e 125 138
e 125 145
e 125 148
e 125 150
e 125 152
e 126 130
e 126 144
e 126 148
e 126 156
e 126 159
e 126 160
e 127 128
e 127 134
e 127 137
e 127 140
e 127 143
e 127 146
e 127 150
e 127 151
e 128 129
e 128 133
e 128 139
e 128 140
e 128 141
e 128 145
e 128 155
e 128 158
e 129 130
e 129 136
e 129 139
e 129 147
e 129 153
e 129 154
e 130 132
e 130 138
e 130 145
e 130 146
e 130 147
e 130 150
e 130 151
e 130 152
e 131 134
e 131 136
e 131 139
e 131 143
e 131 152
e 131 153
e 131 154
e 131 159
e 132 133
e 132 152
e 132 154
e 132 160
e 133 135
e 133 138
e 133 141
e 133 144
e 133 159
e 134 144
e 134 154
e 134 157
e 135 138
e 135 143
e 135 148
e 135 153
e 135 154
e 136 151
e 136 159
e 136 160
e 137 145
e 137 150
e 137 156
e 138 140
e 138 148
e 138 153
e 140 142
e 140 160
e 141 149
e 141 160
e 142 144
e 142 148
e 142 149
e 142 151
e 142 154
e 143 154
e 143 155
e 143 157
e 144 148
e 144 149
e 144 154
e 144 159
e 144 160
e 145 149
e 145 158
e 146 151
e 146 154
e 147 148
e 147 149
e 147 150
e 147 155
e 149 151
e 149 155
e 150 153
e 150 158
e 151 152
e 152 154
e 152 159
e 152 160
e 153 155
e 153 160
e 155 157
e 156 159
e 156 160
e 157 158
e 158 160
